(set-info :smt-lib-version 2.6)
(set-logic QF_FP)
(set-info :source |Random FP created by PyMPF|)
(set-info :license |https://www.gnu.org/licenses/gpl-3.0.html|)
(set-info :category random)
(set-info :status unsat)
(declare-const x Float32)
(assert (= x ((_ to_fp 8 24) #x27D48DF7)))
;; x should be Float32(0x27D48DF7 [Rational(13929975, 2361183241434822606848), 0.000000])

(declare-const y Float32)
(assert (= y (fp #b0 #b00000000 #b11111111111111111111111)))
;; y should be Float32(0x007FFFFF [Rational(8388607, 713623846352979940529142984724747568191373312), 0.000000])

(declare-const result Float32)
(assert (= result (fp.add RNA x y)))
(assert (not (= result ((_ to_fp 8 24) #x27D48DF7))))
(check-sat)
(exit)
